(set-logic ALL)
(declare-fun seed0_T_1 () Bool)
(declare-fun seed0_T_10 () Bool)
(declare-fun seed0_T_2 () Bool)
(declare-fun seed0_T_3 () Bool)
(declare-fun seed0_T_4 () Bool)
(declare-fun seed0_T_5 () Bool)
(declare-fun seed0_T_6 () Bool)
(declare-fun seed0_T_7 () Bool)
(declare-fun seed0_T_8 () Bool)
(declare-fun seed0_T_9 () Bool)
(declare-fun seed0_T_a () Bool)
(declare-fun seed0_T_b () Bool)
(declare-fun seed0_T_c () Bool)
(declare-fun seed0_T_d () Bool)
(declare-fun seed0_T_e () Bool)
(declare-fun seed0_T_f () Bool)
(declare-fun seed0_var_0xINPUT_273828 () String)
(assert (and (or (= seed0_T_1 (not (= "" seed0_var_0xINPUT_273828))) (=> (str.< (str.++ seed0_var_0xINPUT_273828 "v9qCSilr0nQpLF1zXcD") (str.++ seed0_var_0xINPUT_273828 "ph")) (str.contains (str.++ seed0_var_0xINPUT_273828 "RuC") (str.++ seed0_var_0xINPUT_273828 "pLFmTvWKEr")))) (or seed0_T_1 (=> (str.suffixof (str.++ seed0_var_0xINPUT_273828 "wHRIAWfeugS1scFhO3T") (str.++ seed0_var_0xINPUT_273828 "")) (str.prefixof (str.++ seed0_var_0xINPUT_273828 "nLHi9cd4x17AEgO8fzQ") (str.++ seed0_var_0xINPUT_273828 "Yr5gls84L6QO")))) (or (= seed0_T_2 (not (= "" seed0_var_0xINPUT_273828))) (=> (str.suffixof (str.++ seed0_var_0xINPUT_273828 "mR5lZOexgLE7V8oykdKD") (str.++ seed0_var_0xINPUT_273828 "zqJyI3vUi1sec")) (str.prefixof (str.++ seed0_var_0xINPUT_273828 "") (str.++ seed0_var_0xINPUT_273828 "6FgSEvK")))) (or seed0_T_2 (=> (str.suffixof (str.++ seed0_var_0xINPUT_273828 "fZ06VJU7taP3EA") (str.++ seed0_var_0xINPUT_273828 "atJVFyP4vedMoI6TgL")) (str.contains (str.++ seed0_var_0xINPUT_273828 "L6SrPqA9cEwKx") (str.++ seed0_var_0xINPUT_273828 "mnJkH0E125gYvbeh")))) (or (= seed0_T_3 (not (= "" seed0_var_0xINPUT_273828))) (and (str.prefixof (str.++ seed0_var_0xINPUT_273828 "yNd5iu7cwLKnCFW6DmMU") (str.++ seed0_var_0xINPUT_273828 "PrW6")) (str.suffixof (str.++ seed0_var_0xINPUT_273828 "nUr") (str.++ seed0_var_0xINPUT_273828 "4rQIMvP")))) (or seed0_T_3 (or (str.suffixof (str.++ seed0_var_0xINPUT_273828 "o3Fina9v") (str.++ seed0_var_0xINPUT_273828 "gkVhRjld6Tb4M29")) (str.contains (str.++ seed0_var_0xINPUT_273828 "kDPdCnKujE50hYRb3Zt") (str.++ seed0_var_0xINPUT_273828 "3r9RFPM")))) (or (= seed0_T_4 (not (= seed0_var_0xINPUT_273828 ""))) (not (str.< (str.++ seed0_var_0xINPUT_273828 "Pe0L6vJD4RcM") (str.++ seed0_var_0xINPUT_273828 "Hvj")))) (or seed0_T_4 (str.prefixof (str.++ seed0_var_0xINPUT_273828 "cX4Es1ZNJv") (str.++ seed0_var_0xINPUT_273828 "8gtUIOVZqhNT4z2YQWmu"))) (or (= seed0_T_5 (= seed0_var_0xINPUT_273828 "")) (xor (str.< (str.++ seed0_var_0xINPUT_273828 "T64r7M9sg") (str.++ seed0_var_0xINPUT_273828 "N126SBzneu")) (str.<= (str.++ seed0_var_0xINPUT_273828 "ylkqOG24") (str.++ seed0_var_0xINPUT_273828 "hjHz6ZQ0yo2")))) (or (= seed0_T_6 (not seed0_T_5)) (xor (str.< (str.++ seed0_var_0xINPUT_273828 "arT") (str.++ seed0_var_0xINPUT_273828 "FoxuH")) (str.<= (str.++ seed0_var_0xINPUT_273828 "3G8V2sWMZ1bOHKvhrTnS") (str.++ seed0_var_0xINPUT_273828 "O658V1kXiN3FBaAzC0")))) (or seed0_T_6 (not (str.prefixof (str.++ seed0_var_0xINPUT_273828 "A") (str.++ seed0_var_0xINPUT_273828 "Ml")))) (or (= seed0_T_7 (not (= "" seed0_var_0xINPUT_273828))) (str.< (str.++ seed0_var_0xINPUT_273828 "LP9KIxv5s30A6SJ") (str.++ seed0_var_0xINPUT_273828 "rG"))) (or seed0_T_7 (and (str.suffixof (str.++ seed0_var_0xINPUT_273828 "k96c38QMzrwHA") (str.++ seed0_var_0xINPUT_273828 "jReMrHn")) (str.prefixof (str.++ seed0_var_0xINPUT_273828 "R7gKxQX9Jz") (str.++ seed0_var_0xINPUT_273828 "ny8SKQ")))) (or (= seed0_T_8 (not (= seed0_var_0xINPUT_273828 ""))) (xor (str.<= (str.++ seed0_var_0xINPUT_273828 "jhvaxkHbsgi63u1W5") (str.++ seed0_var_0xINPUT_273828 "P0rbdm")) (str.<= (str.++ seed0_var_0xINPUT_273828 "K2kaiLehfYtr") (str.++ seed0_var_0xINPUT_273828 "LfxUNl")))) (or seed0_T_8 (not (str.suffixof (str.++ seed0_var_0xINPUT_273828 "YRsSXF36EzglHp") (str.++ seed0_var_0xINPUT_273828 "jOLQzKwkv")))) (or (= seed0_T_9 (not (= "" seed0_var_0xINPUT_273828))) (xor (str.< (str.++ seed0_var_0xINPUT_273828 "m") (str.++ seed0_var_0xINPUT_273828 "")) (str.prefixof (str.++ seed0_var_0xINPUT_273828 "M4JVhBY7OGaQSnFUENmI") (str.++ seed0_var_0xINPUT_273828 "2V7Lm")))) (or seed0_T_9 (=> (str.<= (str.++ seed0_var_0xINPUT_273828 "4EoO0iCvVGgS3hbctMU") (str.++ seed0_var_0xINPUT_273828 "67Ky")) (str.<= (str.++ seed0_var_0xINPUT_273828 "yPa1rnZoMsY") (str.++ seed0_var_0xINPUT_273828 "jGu")))) (or (= seed0_T_a (= seed0_var_0xINPUT_273828 "")) (xor (str.<= (str.++ seed0_var_0xINPUT_273828 "yAnIcU") (str.++ seed0_var_0xINPUT_273828 "VNMUFi")) (str.prefixof (str.++ seed0_var_0xINPUT_273828 "W5P3BSECVQO1RjIG") (str.++ seed0_var_0xINPUT_273828 "Sb6wdcmJQHKhYkC798")))) (or (= seed0_T_b (not seed0_T_a)) (or (str.suffixof (str.++ seed0_var_0xINPUT_273828 "4dK5eJ9npDgM") (str.++ seed0_var_0xINPUT_273828 "61")) (str.suffixof (str.++ seed0_var_0xINPUT_273828 "2tPSX0bwYfjdOWopzRVe") (str.++ seed0_var_0xINPUT_273828 "3tQsqDOvcfJGSM5Tlne")))) (or seed0_T_b (=> (str.contains (str.++ seed0_var_0xINPUT_273828 "fMoRQxBE9jFtdZCWqyS") (str.++ seed0_var_0xINPUT_273828 "HGhzjpgMdtYWk8e")) (str.<= (str.++ seed0_var_0xINPUT_273828 "CGHR8mpsI1l07J5EArnV") (str.++ seed0_var_0xINPUT_273828 "Yixuel83kTwIWB9QUVs")))) (or (= seed0_T_c (not (= "" seed0_var_0xINPUT_273828))) (not (str.prefixof (str.++ seed0_var_0xINPUT_273828 "K") (str.++ seed0_var_0xINPUT_273828 "PgDshONMfF4jdGt")))) (or seed0_T_c (not (str.prefixof (str.++ seed0_var_0xINPUT_273828 "QGE6tpOXcZ") (str.++ seed0_var_0xINPUT_273828 "RmMiKS4En")))) (or (= seed0_T_d (not (= seed0_var_0xINPUT_273828 ""))) (xor (str.<= (str.++ seed0_var_0xINPUT_273828 "hEv5LxSRGenJTf7") (str.++ seed0_var_0xINPUT_273828 "HbWXP")) (str.suffixof (str.++ seed0_var_0xINPUT_273828 "lufDJAChXK") (str.++ seed0_var_0xINPUT_273828 "n1HE8tBPdbDuJjF")))) (or seed0_T_d (xor (str.suffixof (str.++ seed0_var_0xINPUT_273828 "uYXsAgI") (str.++ seed0_var_0xINPUT_273828 "fC4")) (str.prefixof (str.++ seed0_var_0xINPUT_273828 "eE5UFKnWBJV3yfsPSg8D") (str.++ seed0_var_0xINPUT_273828 "B4VFzRt")))) (or (= seed0_T_e (not (= "" seed0_var_0xINPUT_273828))) (and (str.prefixof (str.++ seed0_var_0xINPUT_273828 "vfNYImlkQ1Pis3gbwr9") (str.++ seed0_var_0xINPUT_273828 "D9IAtl0SMpJPcu")) (str.suffixof (str.++ seed0_var_0xINPUT_273828 "5rSjOhDnQgGa0") (str.++ seed0_var_0xINPUT_273828 "OHxBSYDlFgX0NCPj4")))) (or seed0_T_e (str.prefixof (str.++ seed0_var_0xINPUT_273828 "d1Ss6C0PutcrvM") (str.++ seed0_var_0xINPUT_273828 "817LmjTyBCbXaFGk3vV"))) (or (= seed0_T_f (= seed0_var_0xINPUT_273828 "")) (or (str.<= (str.++ seed0_var_0xINPUT_273828 "h9r") (str.++ seed0_var_0xINPUT_273828 "Aa2d7Qr5qJBGXl")) (str.suffixof (str.++ seed0_var_0xINPUT_273828 "rYB9Q") (str.++ seed0_var_0xINPUT_273828 "z")))) (or (= seed0_T_10 (not seed0_T_f)) (and (str.suffixof (str.++ seed0_var_0xINPUT_273828 "eVIznsGaNu9W") (str.++ seed0_var_0xINPUT_273828 "5szjOMexAR8Dl")) (str.suffixof (str.++ seed0_var_0xINPUT_273828 "s85VFgHoaIY") (str.++ seed0_var_0xINPUT_273828 "HrkADj2hQ7yabOE")))) (or seed0_T_10 (xor (str.contains (str.++ seed0_var_0xINPUT_273828 "") (str.++ seed0_var_0xINPUT_273828 "afeSZv")) (str.contains (str.++ seed0_var_0xINPUT_273828 "KgNM8mGahC0QvkZ4lwcV") (str.++ seed0_var_0xINPUT_273828 "aym6t9QeiZ7V"))))))
(check-sat)
(exit)